12
14
18
6
12
15
13
14
15
13
11
10
13
10
1
11
12
11
16
17
5
11
15
20
12
15
18
14
8
16
18
8
5
14
11
15
11
11
2
12
9
19
7
9
14
16
10
9
16
13
17
13
11
14
14
17
6
16
7
14
6
7
10
11
15
13
13
8
14
9
7
14
4
5
10
16
12
10
18
14
19
13
5
7
15
9
12
7
15
14
8
17
16
18
8
12
20
10
13
13
